certificates/rado_a13_c214_N52.cnf
c Rad2 upper bound instance: x1 + 13*x2 - x3 = 214, interval [1,52]
p cnf 52 414
1 8 17 0
-1 -8 -17 0
1 18 21 0
-1 -18 -21 0
1 19 34 0
-1 -19 -34 0
1 20 47 0
-1 -20 -47 0
2 9 17 0
-2 -9 -17 0
2 18 22 0
-2 -18 -22 0
2 19 35 0
-2 -19 -35 0
2 20 48 0
-2 -20 -48 0
3 10 17 0
-3 -10 -17 0
3 18 23 0
-3 -18 -23 0
3 19 36 0
-3 -19 -36 0
3 20 49 0
-3 -20 -49 0
4 11 17 0
-4 -11 -17 0
4 18 24 0
-4 -18 -24 0
4 19 37 0
-4 -19 -37 0
4 20 50 0
-4 -20 -50 0
5 12 17 0
-5 -12 -17 0
5 18 25 0
-5 -18 -25 0
5 19 38 0
-5 -19 -38 0
5 20 51 0
-5 -20 -51 0
6 13 17 0
-6 -13 -17 0
6 18 26 0
-6 -18 -26 0
6 19 39 0
-6 -19 -39 0
6 20 52 0
-6 -20 -52 0
1 7 16 0
-1 -7 -16 0
7 14 17 0
-7 -14 -17 0
7 18 27 0
-7 -18 -27 0
7 19 40 0
-7 -19 -40 0
2 8 16 0
-2 -8 -16 0
8 15 17 0
-8 -15 -17 0
8 18 28 0
-8 -18 -28 0
8 19 41 0
-8 -19 -41 0
3 9 16 0
-3 -9 -16 0
9 16 17 0
-9 -16 -17 0
9 18 29 0
-9 -18 -29 0
9 19 42 0
-9 -19 -42 0
4 10 16 0
-4 -10 -16 0
10 17 0
-10 -17 0
10 18 30 0
-10 -18 -30 0
10 19 43 0
-10 -19 -43 0
5 11 16 0
-5 -11 -16 0
11 17 18 0
-11 -17 -18 0
11 18 31 0
-11 -18 -31 0
11 19 44 0
-11 -19 -44 0
6 12 16 0
-6 -12 -16 0
12 17 19 0
-12 -17 -19 0
12 18 32 0
-12 -18 -32 0
12 19 45 0
-12 -19 -45 0
7 13 16 0
-7 -13 -16 0
13 17 20 0
-13 -17 -20 0
13 18 33 0
-13 -18 -33 0
13 19 46 0
-13 -19 -46 0
8 14 16 0
-8 -14 -16 0
14 17 21 0
-14 -17 -21 0
14 18 34 0
-14 -18 -34 0
14 19 47 0
-14 -19 -47 0
9 15 16 0
-9 -15 -16 0
15 17 22 0
-15 -17 -22 0
15 18 35 0
-15 -18 -35 0
15 19 48 0
-15 -19 -48 0
10 16 0
-10 -16 0
16 17 23 0
-16 -17 -23 0
16 18 36 0
-16 -18 -36 0
16 19 49 0
-16 -19 -49 0
11 16 17 0
-11 -16 -17 0
17 24 0
-17 -24 0
17 18 37 0
-17 -18 -37 0
17 19 50 0
-17 -19 -50 0
12 16 18 0
-12 -16 -18 0
17 18 25 0
-17 -18 -25 0
18 38 0
-18 -38 0
18 19 51 0
-18 -19 -51 0
13 16 19 0
-13 -16 -19 0
17 19 26 0
-17 -19 -26 0
18 19 39 0
-18 -19 -39 0
19 52 0
-19 -52 0
1 15 20 0
-1 -15 -20 0
14 16 20 0
-14 -16 -20 0
17 20 27 0
-17 -20 -27 0
18 20 40 0
-18 -20 -40 0
2 15 21 0
-2 -15 -21 0
15 16 21 0
-15 -16 -21 0
17 21 28 0
-17 -21 -28 0
18 21 41 0
-18 -21 -41 0
3 15 22 0
-3 -15 -22 0
16 22 0
-16 -22 0
17 22 29 0
-17 -22 -29 0
18 22 42 0
-18 -22 -42 0
4 15 23 0
-4 -15 -23 0
17 23 30 0
-17 -23 -30 0
18 23 43 0
-18 -23 -43 0
5 15 24 0
-5 -15 -24 0
16 18 24 0
-16 -18 -24 0
17 24 31 0
-17 -24 -31 0
18 24 44 0
-18 -24 -44 0
6 15 25 0
-6 -15 -25 0
16 19 25 0
-16 -19 -25 0
17 25 32 0
-17 -25 -32 0
18 25 45 0
-18 -25 -45 0
7 15 26 0
-7 -15 -26 0
16 20 26 0
-16 -20 -26 0
17 26 33 0
-17 -26 -33 0
18 26 46 0
-18 -26 -46 0
8 15 27 0
-8 -15 -27 0
16 21 27 0
-16 -21 -27 0
17 27 34 0
-17 -27 -34 0
18 27 47 0
-18 -27 -47 0
9 15 28 0
-9 -15 -28 0
16 22 28 0
-16 -22 -28 0
17 28 35 0
-17 -28 -35 0
18 28 48 0
-18 -28 -48 0
10 15 29 0
-10 -15 -29 0
16 23 29 0
-16 -23 -29 0
17 29 36 0
-17 -29 -36 0
18 29 49 0
-18 -29 -49 0
11 15 30 0
-11 -15 -30 0
16 24 30 0
-16 -24 -30 0
17 30 37 0
-17 -30 -37 0
18 30 50 0
-18 -30 -50 0
12 15 31 0
-12 -15 -31 0
16 25 31 0
-16 -25 -31 0
17 31 38 0
-17 -31 -38 0
18 31 51 0
-18 -31 -51 0
13 15 32 0
-13 -15 -32 0
16 26 32 0
-16 -26 -32 0
17 32 39 0
-17 -32 -39 0
18 32 52 0
-18 -32 -52 0
1 14 33 0
-1 -14 -33 0
14 15 33 0
-14 -15 -33 0
16 27 33 0
-16 -27 -33 0
17 33 40 0
-17 -33 -40 0
2 14 34 0
-2 -14 -34 0
15 34 0
-15 -34 0
16 28 34 0
-16 -28 -34 0
17 34 41 0
-17 -34 -41 0
3 14 35 0
-3 -14 -35 0
15 16 35 0
-15 -16 -35 0
16 29 35 0
-16 -29 -35 0
17 35 42 0
-17 -35 -42 0
4 14 36 0
-4 -14 -36 0
15 17 36 0
-15 -17 -36 0
16 30 36 0
-16 -30 -36 0
17 36 43 0
-17 -36 -43 0
5 14 37 0
-5 -14 -37 0
15 18 37 0
-15 -18 -37 0
16 31 37 0
-16 -31 -37 0
17 37 44 0
-17 -37 -44 0
6 14 38 0
-6 -14 -38 0
15 19 38 0
-15 -19 -38 0
16 32 38 0
-16 -32 -38 0
17 38 45 0
-17 -38 -45 0
7 14 39 0
-7 -14 -39 0
15 20 39 0
-15 -20 -39 0
16 33 39 0
-16 -33 -39 0
17 39 46 0
-17 -39 -46 0
8 14 40 0
-8 -14 -40 0
15 21 40 0
-15 -21 -40 0
16 34 40 0
-16 -34 -40 0
17 40 47 0
-17 -40 -47 0
9 14 41 0
-9 -14 -41 0
15 22 41 0
-15 -22 -41 0
16 35 41 0
-16 -35 -41 0
17 41 48 0
-17 -41 -48 0
10 14 42 0
-10 -14 -42 0
15 23 42 0
-15 -23 -42 0
16 36 42 0
-16 -36 -42 0
17 42 49 0
-17 -42 -49 0
11 14 43 0
-11 -14 -43 0
15 24 43 0
-15 -24 -43 0
16 37 43 0
-16 -37 -43 0
17 43 50 0
-17 -43 -50 0
12 14 44 0
-12 -14 -44 0
15 25 44 0
-15 -25 -44 0
16 38 44 0
-16 -38 -44 0
17 44 51 0
-17 -44 -51 0
13 14 45 0
-13 -14 -45 0
15 26 45 0
-15 -26 -45 0
16 39 45 0
-16 -39 -45 0
17 45 52 0
-17 -45 -52 0
1 13 46 0
-1 -13 -46 0
14 46 0
-14 -46 0
15 27 46 0
-15 -27 -46 0
16 40 46 0
-16 -40 -46 0
2 13 47 0
-2 -13 -47 0
14 15 47 0
-14 -15 -47 0
15 28 47 0
-15 -28 -47 0
16 41 47 0
-16 -41 -47 0
3 13 48 0
-3 -13 -48 0
14 16 48 0
-14 -16 -48 0
15 29 48 0
-15 -29 -48 0
16 42 48 0
-16 -42 -48 0
4 13 49 0
-4 -13 -49 0
14 17 49 0
-14 -17 -49 0
15 30 49 0
-15 -30 -49 0
16 43 49 0
-16 -43 -49 0
5 13 50 0
-5 -13 -50 0
14 18 50 0
-14 -18 -50 0
15 31 50 0
-15 -31 -50 0
16 44 50 0
-16 -44 -50 0
6 13 51 0
-6 -13 -51 0
14 19 51 0
-14 -19 -51 0
15 32 51 0
-15 -32 -51 0
16 45 51 0
-16 -45 -51 0
7 13 52 0
-7 -13 -52 0
14 20 52 0
-14 -20 -52 0
15 33 52 0
-15 -33 -52 0
16 46 52 0
-16 -46 -52 0
