certificates/rado_a13_c214_N52.drat
-46 -47 -52 0
-47 -48 -52 0
-48 -49 -52 0
17 -15 48 0
-17 -50 19 0
17 -52 0
-52 0
19 0
-16 -17 0
d -9 -16 -17 0
-17 0
10 0
24 0
45 0
-16 0
-43 0
-12 0
48 0
22 0
46 0
23 0
9 0
11 0
50 0
49 0
37 0
36 0
5 0
6 0
18 0
-15 0
-14 0
-13 0
-42 0
-44 0
-4 0
-3 0
-38 0
-39 0
-2 0
-25 0
-26 0
-29 0
-30 0
-31 0
-51 0
-28 0
21 0
34 0
35 0
33 0
8 0
0
